% demand
num_movements = 29;
loading_factor = [1450, 950, 1000, 850, 900, 800, 1550, 1400, 2000, 1100, 1700, 1950, 1150, 1100, 1600, 1100, 1500, 950, 1500, 1050, 1150, 800, 850, 1600, 1550, 1150, 1800, 1650, 1500];
pickup_time = [0, 0, 0, 0, 1, 2, 2, 2, 2, 3, 3, 4, 4, 4, 5, 5, 5, 5, 5, 7, 8, 9, 9, 9, 9, 10, 12, 12, 12];
delivery_time = [1, 2, 2, 3, 2, 3, 3, 3, 3, 5, 4, 5, 5, 5, 8, 6, 6, 8, 8, 11, 10, 14, 14, 12, 12, 12, 14, 14, 14];

% transporter definition
total_capacity = 7000;
num_decks = 3;
capacity = [3000, 1000, 3000];

% ways out of decks
num_ways_out = 1;
paths_out = array3d(decks, ways_out, decks, [
% ways out of deck d1
2, 3, 0, 

% ways out of deck d2
3, 0, 0, 

% ways out of deck d3
0, 0, 0,	

]);

